17,6	0,0	14,3	6,6	0,0	0,0	0,0	0,0	0,0	19,5
5,3	17,4	0,0	14,5	10,0	0,0	0,0	6,9	0,0	0,0
0,0	0,0	18,9	0,0	6,6	11,1	0,0	0,0	8,1	0,0
16,8	0,0	7,4	0,0	0,0	0,0	14,0	0,0	0,0	0,0
0,0	13,8	0,0	5,2	11,8	0,0	0,0	10,4	0,0	0,0
0,0	13,2	6,2	0,0	12,4	11,6	0,0	0,0	6,3	0,0
0,0	6,5	0,0	6,7	0,0	0,0	14,0	0,0	0,0	15,5
9,0	0,0	9,8	0,0	0,0	0,0	0,0	0,0	0,0	12,8
0,0	7,2	0,0	14,7	12,4	0,0	0,0	16,5	0,0	0,0
0,0	0,0	7,0	0,0	0,0	11,3	17,7	0,0	0,0	5,3
									
4,2	4,0	2,9	4,0	3,3	5,0	4,7	3,0	4,8	3,9
